
===== New CPLEX run =====
Instance: /home/yorig/tuner/mpils-tests/instances/miplib/easy/supportcase33.mps
Config: /scratch/yorig/mpils-results-grid-seconds-5-watchdog-mip-start/easy/8proc/seed-4/10_supportcase33_seed-4_20260504_032501/expansion/config_param_CPXPARAM_Preprocessing_CoeffReduce_2_iter_3.prm
========================

Selected objective sense:  MINIMIZE
Selected objective  name:  obj
Selected RHS        name:  rhs
Selected bound      name:  bnd
Wall watchdog: enabled factor=1 grace=1 limit=6 seconds
Version identifier: 22.1.2.0 | 2024-11-26 | 0edbb82fd
CPXPARAM_Threads                                 8
CPXPARAM_Parallel                                1
CPXPARAM_MIP_Cuts_Cliques                        3
CPXPARAM_Preprocessing_CoeffReduce               2
CPXPARAM_MIP_Cuts_Covers                         2
CPXPARAM_MIP_Cuts_Implied                        -1
CPXPARAM_MIP_Cuts_GUBCovers                      -1
CPXPARAM_MIP_Limits_GomoryCand                   800
CPXPARAM_MIP_Cuts_Gomory                         2
CPXPARAM_MIP_Cuts_PathCut                        -1
CPXPARAM_MIP_Cuts_MIRCut                         2
CPXPARAM_MIP_Cuts_Disjunctive                    3
CPXPARAM_Emphasis_MIP                            4
CPXPARAM_TimeLimit                               5
Found incumbent of value 0.000000 after 0.00 sec. (2.20 ticks)
Tried aggregator 2 times.
MIP Presolve eliminated 17556 rows and 13423 columns.
MIP Presolve modified 14568 coefficients.
Aggregator did 11 substitutions.
Reduced MIP has 2922 rows, 6763 columns, and 53605 nonzeros.
Reduced MIP has 6683 binaries, 80 generals, 0 SOSs, and 0 indicators.
Presolve time = 0.09 sec. (158.17 ticks)
Probing fixed 667 vars, tightened 0 bounds.
Probing changed sense of 39 constraints.
Probing time = 0.17 sec. (249.39 ticks)
Tried aggregator 2 times.
Detecting symmetries...
MIP Presolve eliminated 639 rows and 667 columns.
MIP Presolve modified 197 coefficients.
Aggregator did 7 substitutions.
Reduced MIP has 2276 rows, 6089 columns, and 46722 nonzeros.
Reduced MIP has 6009 binaries, 80 generals, 0 SOSs, and 0 indicators.
Presolve time = 0.03 sec. (37.79 ticks)
Probing fixed 1 vars, tightened 0 bounds.
Probing time = 0.03 sec. (37.88 ticks)
Clique table members: 25145.
MIP emphasis: hidden feasible solutions.
MIP search method: dynamic search.
Parallel mode: deterministic, using up to 8 threads.
Root relaxation solution time = 0.06 sec. (117.15 ticks)

        Nodes                                         Cuts/
   Node  Left     Objective  IInf  Best Integer    Best Bound    ItCnt     Gap

*     0+    0                            0.0000    -1075.0000              --- 
      0     0     -462.8425   108        0.0000     -462.8425     1467     --- 
*     0+    0                         -155.0000     -462.8425           198.61%
      0     0     -442.5000   138     -155.0000     Cuts: 173     2013  185.48%
      0     0     -440.0000   115     -155.0000     Cuts: 171     2355  183.87%
*     0+    0                         -215.0000     -440.0000           104.65%
      0     0     -440.0000    87     -215.0000      Cuts: 39     2611  104.65%
*     0+    0                         -235.0000     -440.0000            87.23%
      0     0  -1.00000e+75     0     -235.0000     -440.0000     2611   87.23%
      0     0     -425.0000   104     -235.0000      Cuts: 33     2853   80.85%
*     0+    0                         -260.0000     -425.0000            63.46%
      0     0     -425.0000   107     -260.0000     Cuts: 126     3250   63.46%
Detecting symmetries...
      0     0     -425.0000    79     -260.0000      Cuts: 61     3352   63.46%
*     0+    0                         -285.0000     -425.0000            49.12%
      0     0  -1.00000e+75     0     -285.0000     -425.0000     3352   49.12%
      0     0     -425.0000    80     -285.0000      Cuts: 86     3767   49.12%
Detecting symmetries...
      0     2     -424.4677    98     -285.0000     -425.0000     3767   49.12%
Elapsed time = 2.51 sec. (3597.82 ticks, tree = 0.02 MB, solutions = 5)
*    39+    7                         -310.0000     -420.0000            35.48%
    122    66     -380.6492    68     -310.0000     -418.3755     9881   34.96%
    266   152     -332.4038    98     -310.0000     -418.3755    20456   34.96%
*   374   218      integral     0     -315.0000     -418.3755    32132   32.82%
    386   219     -325.0000    35     -315.0000     -417.3626    30186   32.50%
    449   220     -380.0000    39     -315.0000     -417.3626    35207   32.50%
    701   378    infeasible           -315.0000     -405.0000    45758   28.57%
*   715   361      integral     0     -340.0000     -405.0000    44891   19.12%
    971   386     -349.9774    65     -340.0000     -405.0000    54860   19.12%
   1206   541     -365.0000    49     -340.0000     -405.0000    65888   19.12%
   1351   612     -385.5448    70     -340.0000     -405.0000    72065   19.12%
   2358   843    infeasible           -340.0000     -400.8844   110217   17.91%
Elapsed time = 4.36 sec. (6497.45 ticks, tree = 12.26 MB, solutions = 9)
   3400   982        cutoff           -340.0000     -379.2624   144206   11.55%

Clique cuts applied:  5
Cover cuts applied:  68
Mixed integer rounding cuts applied:  295
Zero-half cuts applied:  9
Gomory fractional cuts applied:  15
Disjunctive cuts applied:  2
Cone linearizations applied:  0

Root node processing (before b&c):
  Real time             =    2.47 sec. (3569.49 ticks)
Parallel b&c, 8 threads:
  Real time             =    2.54 sec. (3935.37 ticks)
  Sync time (average)   =    0.51 sec.
  Wait time (average)   =    0.00 sec.
                          ------------
Total (root+branch&cut) =    5.01 sec. (7504.85 ticks)
Gap: 9.45%
Upper bound: -340
Lower bound: -372.143
Termination status: Normal
End of CPLEX run. Time: 5.01161 seconds

===== New CPLEX run =====
Instance: /home/yorig/tuner/mpils-tests/instances/miplib/easy/supportcase33.mps
Config: /scratch/yorig/mpils-results-grid-seconds-5-watchdog-mip-start/easy/8proc/seed-4/10_supportcase33_seed-4_20260504_032501/expansion/config_param_CPXPARAM_Preprocessing_CoeffReduce_3_iter_3.prm
========================

Selected objective sense:  MINIMIZE
Selected objective  name:  obj
Selected RHS        name:  rhs
Selected bound      name:  bnd
Wall watchdog: enabled factor=1 grace=1 limit=6 seconds
Version identifier: 22.1.2.0 | 2024-11-26 | 0edbb82fd
CPXPARAM_Threads                                 8
CPXPARAM_Parallel                                1
CPXPARAM_MIP_Cuts_Cliques                        3
CPXPARAM_Preprocessing_CoeffReduce               3
CPXPARAM_MIP_Cuts_Covers                         2
CPXPARAM_MIP_Cuts_Implied                        -1
CPXPARAM_MIP_Cuts_GUBCovers                      -1
CPXPARAM_MIP_Limits_GomoryCand                   800
CPXPARAM_MIP_Cuts_Gomory                         2
CPXPARAM_MIP_Cuts_PathCut                        -1
CPXPARAM_MIP_Cuts_MIRCut                         2
CPXPARAM_MIP_Cuts_Disjunctive                    3
CPXPARAM_Emphasis_MIP                            4
CPXPARAM_TimeLimit                               5
Found incumbent of value 0.000000 after 0.00 sec. (2.20 ticks)
Tried aggregator 2 times.
MIP Presolve eliminated 17526 rows and 13423 columns.
MIP Presolve modified 19994 coefficients.
Aggregator did 11 substitutions.
Reduced MIP has 2922 rows, 6763 columns, and 53605 nonzeros.
Reduced MIP has 6683 binaries, 80 generals, 0 SOSs, and 0 indicators.
Presolve time = 0.09 sec. (158.34 ticks)
Probing fixed 667 vars, tightened 0 bounds.
Probing changed sense of 39 constraints.
Probing time = 0.17 sec. (249.39 ticks)
Tried aggregator 2 times.
Detecting symmetries...
MIP Presolve eliminated 639 rows and 667 columns.
MIP Presolve modified 197 coefficients.
Aggregator did 7 substitutions.
Reduced MIP has 2276 rows, 6089 columns, and 46722 nonzeros.
Reduced MIP has 6009 binaries, 80 generals, 0 SOSs, and 0 indicators.
Presolve time = 0.03 sec. (38.23 ticks)
Probing fixed 1 vars, tightened 0 bounds.
Probing time = 0.03 sec. (37.88 ticks)
Clique table members: 25145.
MIP emphasis: hidden feasible solutions.
MIP search method: dynamic search.
Parallel mode: deterministic, using up to 8 threads.
Root relaxation solution time = 0.07 sec. (128.14 ticks)

        Nodes                                         Cuts/
   Node  Left     Objective  IInf  Best Integer    Best Bound    ItCnt     Gap

*     0+    0                            0.0000    -1075.0000              --- 
      0     0     -461.5092   136        0.0000     -461.5092     1507     --- 
*     0+    0                          -50.0000     -461.5092           823.02%
      0     0     -449.0000   126      -50.0000      Cuts: 47     1797  798.00%
      0     0     -441.0000   143      -50.0000      Cuts: 70     2209  782.00%
*     0+    0                         -205.0000     -441.0000           115.12%
      0     0     -441.0000   136     -205.0000     Cuts: 104     2530  115.12%
*     0+    0                         -255.0000     -441.0000            72.94%
      0     0     -440.0000   112     -255.0000     Cuts: 103     2793   72.55%
*     0+    0                         -270.0000     -440.0000            62.96%
      0     0     -440.0000   106     -270.0000      Cuts: 41     2960   62.96%
Detecting symmetries...
*     0+    0                         -285.0000     -440.0000            54.39%
      0     0     -440.0000   108     -285.0000      Cuts: 57     3140   54.39%
      0     0     -439.6394   130     -285.0000      Cuts: 10     3497   54.26%
      0     0     -425.0000   125     -285.0000      Cuts: 66     3893   49.12%
      0     0     -425.0000   107     -285.0000      Cuts: 59     4192   49.12%
*     0+    0                         -290.0000     -425.0000            46.55%
      0     0  -1.00000e+75     0     -290.0000     -425.0000     4192   46.55%
      0     0     -425.0000   104     -290.0000      Cuts: 31     4499   46.55%
Detecting symmetries...
      0     2     -425.0000    79     -290.0000     -425.0000     4499   46.55%
Elapsed time = 2.36 sec. (3714.13 ticks, tree = 0.02 MB, solutions = 6)
    178   104     -389.1780    75     -290.0000     -420.0000    10430   44.83%
*   271   177      integral     0     -310.0000     -420.0000    13110   35.48%
    405   237     -375.0000    48     -310.0000     -420.0000    17560   35.48%
    614   419     -360.6166    51     -310.0000     -420.0000    27010   35.48%
    831   560    infeasible           -310.0000     -416.1972    35205   34.26%
    870   590     -396.0714    87     -310.0000     -416.1972    39329   34.26%
*   917+  597                         -315.0000     -416.1972            32.13%
   1131   656     -404.4369   111     -315.0000     -406.0000    44240   28.89%
   1424   884        cutoff           -315.0000     -405.0000    55086   28.57%
   1706   971     -385.0000    51     -315.0000     -405.0000    62708   28.57%
   1939  1144     -390.0000    79     -315.0000     -405.0000    75120   28.57%
   2582  1456     -365.0000    52     -315.0000     -405.0000   110324   28.57%
Elapsed time = 4.35 sec. (6835.37 ticks, tree = 26.39 MB, solutions = 8)
   3390  1825     -365.0000    43     -315.0000     -405.0000   142878   28.57%

Performing restart 1

Repeating presolve.
Tried aggregator 1 time.
MIP Presolve eliminated 55 rows and 38 columns.
MIP Presolve modified 23654 coefficients.
Reduced MIP has 2219 rows, 6051 columns, and 33560 nonzeros.
Reduced MIP has 5971 binaries, 80 generals, 0 SOSs, and 0 indicators.
Presolve time = 0.02 sec. (37.87 ticks)
Represolve time = 0.14 sec. (128.07 ticks)

Root node processing (before b&c):
  Real time             =    2.31 sec. (3677.09 ticks)
Parallel b&c, 8 threads:
  Real time             =    2.70 sec. (4274.17 ticks)
  Sync time (average)   =    0.00 sec.
  Wait time (average)   =    0.00 sec.
                          ------------
Total (root+branch&cut) =    5.02 sec. (7951.26 ticks)
Gap: 28.44%
Upper bound: -315
Lower bound: -404.576
Termination status: Normal
End of CPLEX run. Time: 5.01863 seconds

===== New CPLEX run =====
Instance: /home/yorig/tuner/mpils-tests/instances/miplib/easy/supportcase33.mps
Config: /scratch/yorig/mpils-results-grid-seconds-5-watchdog-mip-start/easy/8proc/seed-4/10_supportcase33_seed-4_20260504_032501/expansion/config_param_CPXPARAM_Simplex_Crash_-1_iter_3.prm
========================

Selected objective sense:  MINIMIZE
Selected objective  name:  obj
Selected RHS        name:  rhs
Selected bound      name:  bnd
Wall watchdog: enabled factor=1 grace=1 limit=6 seconds
Version identifier: 22.1.2.0 | 2024-11-26 | 0edbb82fd
CPXPARAM_Simplex_Crash                           -1
CPXPARAM_Threads                                 8
CPXPARAM_Parallel                                1
CPXPARAM_MIP_Cuts_Cliques                        3
CPXPARAM_MIP_Cuts_Covers                         2
CPXPARAM_MIP_Cuts_Implied                        -1
CPXPARAM_MIP_Cuts_GUBCovers                      -1
CPXPARAM_MIP_Limits_GomoryCand                   800
CPXPARAM_MIP_Cuts_Gomory                         2
CPXPARAM_MIP_Cuts_PathCut                        -1
CPXPARAM_MIP_Cuts_MIRCut                         2
CPXPARAM_MIP_Cuts_Disjunctive                    3
CPXPARAM_Emphasis_MIP                            4
CPXPARAM_TimeLimit                               5
Found incumbent of value 0.000000 after 0.00 sec. (2.20 ticks)
Tried aggregator 2 times.
MIP Presolve eliminated 17556 rows and 13423 columns.
MIP Presolve modified 14568 coefficients.
Aggregator did 11 substitutions.
Reduced MIP has 2922 rows, 6763 columns, and 53605 nonzeros.
Reduced MIP has 6683 binaries, 80 generals, 0 SOSs, and 0 indicators.
Presolve time = 0.09 sec. (158.17 ticks)
Probing fixed 667 vars, tightened 0 bounds.
Probing changed sense of 39 constraints.
Probing time = 0.17 sec. (249.39 ticks)
Tried aggregator 2 times.
Detecting symmetries...
MIP Presolve eliminated 639 rows and 667 columns.
MIP Presolve modified 197 coefficients.
Aggregator did 7 substitutions.
Reduced MIP has 2276 rows, 6089 columns, and 46722 nonzeros.
Reduced MIP has 6009 binaries, 80 generals, 0 SOSs, and 0 indicators.
Presolve time = 0.03 sec. (37.79 ticks)
Probing fixed 1 vars, tightened 0 bounds.
Probing time = 0.03 sec. (37.88 ticks)
Clique table members: 25145.
MIP emphasis: hidden feasible solutions.
MIP search method: dynamic search.
Parallel mode: deterministic, using up to 8 threads.
Root relaxation solution time = 0.06 sec. (117.15 ticks)

        Nodes                                         Cuts/
   Node  Left     Objective  IInf  Best Integer    Best Bound    ItCnt     Gap

*     0+    0                            0.0000    -1075.0000              --- 
      0     0     -462.8425   108        0.0000     -462.8425     1467     --- 
*     0+    0                         -155.0000     -462.8425           198.61%
      0     0     -442.5000   138     -155.0000     Cuts: 173     2013  185.48%
      0     0     -440.0000   115     -155.0000     Cuts: 171     2355  183.87%
*     0+    0                         -215.0000     -440.0000           104.65%
      0     0     -440.0000    87     -215.0000      Cuts: 39     2611  104.65%
*     0+    0                         -235.0000     -440.0000            87.23%
      0     0  -1.00000e+75     0     -235.0000     -440.0000     2611   87.23%
      0     0     -425.0000   104     -235.0000      Cuts: 33     2853   80.85%
*     0+    0                         -260.0000     -425.0000            63.46%
      0     0     -425.0000   107     -260.0000     Cuts: 126     3250   63.46%
Detecting symmetries...
      0     0     -425.0000    79     -260.0000      Cuts: 61     3352   63.46%
*     0+    0                         -285.0000     -425.0000            49.12%
      0     0  -1.00000e+75     0     -285.0000     -425.0000     3352   49.12%
      0     0     -425.0000    80     -285.0000      Cuts: 86     3767   49.12%
Detecting symmetries...
      0     2     -424.4677    98     -285.0000     -425.0000     3767   49.12%
Elapsed time = 2.51 sec. (3597.82 ticks, tree = 0.02 MB, solutions = 5)
*    39+    7                         -310.0000     -420.0000            35.48%
    122    66     -380.6492    68     -310.0000     -418.3755     9881   34.96%
    266   152     -332.4038    98     -310.0000     -418.3755    20456   34.96%
*   374   218      integral     0     -315.0000     -418.3755    32132   32.82%
    386   219     -325.0000    35     -315.0000     -417.3626    30186   32.50%
    449   220     -380.0000    39     -315.0000     -417.3626    35207   32.50%
    701   378    infeasible           -315.0000     -405.0000    45758   28.57%
*   715   361      integral     0     -340.0000     -405.0000    44891   19.12%
    971   386     -349.9774    65     -340.0000     -405.0000    54860   19.12%
   1206   541     -365.0000    49     -340.0000     -405.0000    65888   19.12%
   1351   612     -385.5448    70     -340.0000     -405.0000    72065   19.12%
   2358   843    infeasible           -340.0000     -400.8844   110217   17.91%
Elapsed time = 4.36 sec. (6497.45 ticks, tree = 12.26 MB, solutions = 9)
   3400   982        cutoff           -340.0000     -379.2624   144206   11.55%

Clique cuts applied:  5
Cover cuts applied:  68
Mixed integer rounding cuts applied:  295
Zero-half cuts applied:  9
Gomory fractional cuts applied:  15
Disjunctive cuts applied:  2
Cone linearizations applied:  0

Root node processing (before b&c):
  Real time             =    2.47 sec. (3569.49 ticks)
Parallel b&c, 8 threads:
  Real time             =    2.54 sec. (3938.51 ticks)
  Sync time (average)   =    0.51 sec.
  Wait time (average)   =    0.00 sec.
                          ------------
Total (root+branch&cut) =    5.01 sec. (7508.00 ticks)
Gap: 9.45%
Upper bound: -340
Lower bound: -372.143
Termination status: Normal
End of CPLEX run. Time: 5.011 seconds

===== New CPLEX run =====
Instance: /home/yorig/tuner/mpils-tests/instances/miplib/easy/supportcase33.mps
Config: /scratch/yorig/mpils-results-grid-seconds-5-watchdog-mip-start/easy/8proc/seed-4/10_supportcase33_seed-4_20260504_032501/expansion/config_param_CPXPARAM_Simplex_Crash_0_iter_3.prm
========================

Selected objective sense:  MINIMIZE
Selected objective  name:  obj
Selected RHS        name:  rhs
Selected bound      name:  bnd
Wall watchdog: enabled factor=1 grace=1 limit=6 seconds
Version identifier: 22.1.2.0 | 2024-11-26 | 0edbb82fd
CPXPARAM_Simplex_Crash                           0
CPXPARAM_Threads                                 8
CPXPARAM_Parallel                                1
CPXPARAM_MIP_Cuts_Cliques                        3
CPXPARAM_MIP_Cuts_Covers                         2
CPXPARAM_MIP_Cuts_Implied                        -1
CPXPARAM_MIP_Cuts_GUBCovers                      -1
CPXPARAM_MIP_Limits_GomoryCand                   800
CPXPARAM_MIP_Cuts_Gomory                         2
CPXPARAM_MIP_Cuts_PathCut                        -1
CPXPARAM_MIP_Cuts_MIRCut                         2
CPXPARAM_MIP_Cuts_Disjunctive                    3
CPXPARAM_Emphasis_MIP                            4
CPXPARAM_TimeLimit                               5
Found incumbent of value 0.000000 after 0.00 sec. (2.20 ticks)
Tried aggregator 2 times.
MIP Presolve eliminated 17556 rows and 13423 columns.
MIP Presolve modified 14568 coefficients.
Aggregator did 11 substitutions.
Reduced MIP has 2922 rows, 6763 columns, and 53605 nonzeros.
Reduced MIP has 6683 binaries, 80 generals, 0 SOSs, and 0 indicators.
Presolve time = 0.09 sec. (158.17 ticks)
Probing fixed 667 vars, tightened 0 bounds.
Probing changed sense of 39 constraints.
Probing time = 0.17 sec. (249.39 ticks)
Tried aggregator 2 times.
Detecting symmetries...
MIP Presolve eliminated 639 rows and 667 columns.
MIP Presolve modified 197 coefficients.
Aggregator did 7 substitutions.
Reduced MIP has 2276 rows, 6089 columns, and 46722 nonzeros.
Reduced MIP has 6009 binaries, 80 generals, 0 SOSs, and 0 indicators.
Presolve time = 0.03 sec. (37.79 ticks)
Probing fixed 1 vars, tightened 0 bounds.
Probing time = 0.03 sec. (37.88 ticks)
Clique table members: 25145.
MIP emphasis: hidden feasible solutions.
MIP search method: dynamic search.
Parallel mode: deterministic, using up to 8 threads.
Root relaxation solution time = 0.06 sec. (117.15 ticks)

        Nodes                                         Cuts/
   Node  Left     Objective  IInf  Best Integer    Best Bound    ItCnt     Gap

*     0+    0                            0.0000    -1075.0000              --- 
      0     0     -462.8425   108        0.0000     -462.8425     1467     --- 
*     0+    0                         -155.0000     -462.8425           198.61%
      0     0     -442.5000   138     -155.0000     Cuts: 173     2013  185.48%
      0     0     -440.0000   115     -155.0000     Cuts: 171     2355  183.87%
*     0+    0                         -215.0000     -440.0000           104.65%
      0     0     -440.0000    87     -215.0000      Cuts: 39     2611  104.65%
*     0+    0                         -235.0000     -440.0000            87.23%
      0     0  -1.00000e+75     0     -235.0000     -440.0000     2611   87.23%
      0     0     -425.0000   104     -235.0000      Cuts: 33     2853   80.85%
*     0+    0                         -260.0000     -425.0000            63.46%
      0     0     -425.0000   107     -260.0000     Cuts: 126     3250   63.46%
Detecting symmetries...
      0     0     -425.0000    79     -260.0000      Cuts: 61     3352   63.46%
*     0+    0                         -285.0000     -425.0000            49.12%
      0     0  -1.00000e+75     0     -285.0000     -425.0000     3352   49.12%
      0     0     -425.0000    80     -285.0000      Cuts: 86     3767   49.12%
Detecting symmetries...
      0     2     -424.4677    98     -285.0000     -425.0000     3767   49.12%
Elapsed time = 2.51 sec. (3597.82 ticks, tree = 0.02 MB, solutions = 5)
*    39+    7                         -310.0000     -420.0000            35.48%
    122    66     -380.6492    68     -310.0000     -418.3755     9881   34.96%
    266   152     -332.4038    98     -310.0000     -418.3755    20456   34.96%
*   374   218      integral     0     -315.0000     -418.3755    32132   32.82%
    386   219     -325.0000    35     -315.0000     -417.3626    30186   32.50%
    449   220     -380.0000    39     -315.0000     -417.3626    35207   32.50%
    701   378    infeasible           -315.0000     -405.0000    45758   28.57%
*   715   361      integral     0     -340.0000     -405.0000    44891   19.12%
    971   386     -349.9774    65     -340.0000     -405.0000    54860   19.12%
   1206   541     -365.0000    49     -340.0000     -405.0000    65888   19.12%
   1351   612     -385.5448    70     -340.0000     -405.0000    72065   19.12%
   2358   843    infeasible           -340.0000     -400.8844   110217   17.91%
Elapsed time = 4.36 sec. (6497.45 ticks, tree = 12.26 MB, solutions = 9)
   3400   982        cutoff           -340.0000     -379.2624   144206   11.55%

Clique cuts applied:  5
Cover cuts applied:  68
Mixed integer rounding cuts applied:  295
Zero-half cuts applied:  9
Gomory fractional cuts applied:  15
Disjunctive cuts applied:  2
Cone linearizations applied:  0

Root node processing (before b&c):
  Real time             =    2.47 sec. (3569.49 ticks)
Parallel b&c, 8 threads:
  Real time             =    2.53 sec. (3932.76 ticks)
  Sync time (average)   =    0.51 sec.
  Wait time (average)   =    0.00 sec.
                          ------------
Total (root+branch&cut) =    5.01 sec. (7502.25 ticks)
Gap: 9.45%
Upper bound: -340
Lower bound: -372.143
Termination status: Normal
End of CPLEX run. Time: 5.01107 seconds
